NAME : n60w140.001.596.tour
COMMENT : Length = 596
COMMENT : Found by LKH [Keld Helsgaun] Tue Nov  7 19:39:19 2017
TYPE : TOUR
DIMENSION : 61
TOUR_SECTION
1
19
4
33
34
41
8
56
30
18
12
45
7
59
16
20
25
57
40
13
5
9
26
29
43
22
17
60
37
58
46
28
3
15
53
55
48
32
44
51
47
36
21
10
54
50
49
6
27
35
38
52
39
42
31
24
11
14
2
61
23
-1
EOF
